15
1 0 10
2 0 42
2 1 14
3 0 42
3 1 50
3 2 6
4 0 54
4 1 46
4 2 45
4 3 24
5 0 48
5 1 33
5 2 10
5 3 55
5 4 38
6 0 61
6 1 19
6 2 18
6 3 51
6 4 26
6 5 19
7 0 18
7 1 9
7 2 44
7 3 2
7 4 32
7 5 55
7 6 54
8 0 59
8 1 60
8 2 52
8 3 41
8 4 20
8 5 45
8 6 40
8 7 1
9 0 44
9 1 60
9 2 14
9 3 33
9 4 3
9 5 23
9 6 25
9 7 7
9 8 18
10 0 23
10 1 51
10 2 27
10 3 10
10 4 15
10 5 55
10 6 13
10 7 21
10 8 27
10 9 19
11 0 10
11 1 26
11 2 60
11 3 27
11 4 3
11 5 25
11 6 52
11 7 31
11 8 28
11 9 26
11 10 36
12 0 27
12 1 61
12 2 56
12 3 28
12 4 53
12 5 14
12 6 50
12 7 3
12 8 24
12 9 23
12 10 7
12 11 9
13 0 37
13 1 38
13 2 55
13 3 6
13 4 56
13 5 44
13 6 58
13 7 13
13 8 27
13 9 3
13 10 12
13 11 48
13 12 38
14 0 26
14 1 61
14 2 47
14 3 2
14 4 9
14 5 34
14 6 20
14 7 54
14 8 25
14 9 21
14 10 42
14 11 50
14 12 44
14 13 16
